c 
p cnf 10 40
7 5 -6 0
-7 -6 -1 0
10 -2 -1 0
4 -9 5 0
-1 -5 6 0
-3 -5 -6 0
7 -4 5 0
-3 -8 -1 0
-7 5 -8 0
10 -9 7 0
4 10 1 0
9 -5 -7 0
4 -1 9 0
-10 -1 3 0
-8 -4 -3 0
-8 -5 -6 0
-10 5 7 0
5 -9 10 0
-1 -9 3 0
3 9 6 0
6 4 -8 0
10 1 7 0
1 3 -10 0
-1 -7 5 0
-6 4 -1 0
2 3 1 0
8 2 4 0
1 -2 -4 0
7 -3 -6 0
6 -1 2 0
-4 -8 10 0
4 -2 -1 0
5 -6 9 0
2 -6 -4 0
-4 7 -6 0
4 -3 -7 0
8 -9 6 0
-9 5 8 0
-2 -8 -1 0
3 2 -8 0
